(set-logic QF_BV)
(declare-fun _substvar_5229_ () (_ BitVec 64))
(declare-fun _substvar_5231_ () (_ BitVec 64))
(assert (let ((?v_0 ((_ extract 63 63) _substvar_5229_))) (let ((?v_1 (bvand (bvnot ?v_0) (bvnot ((_ extract 62 62) _substvar_5229_))))) (let ((?v_2 (bvand ?v_1 (bvnot ((_ extract 61 61) _substvar_5229_))))) (let ((?v_3 (bvand ?v_2 (bvnot ((_ extract 60 60) _substvar_5229_))))) (let ((?v_4 (bvand ?v_3 (bvnot ((_ extract 59 59) _substvar_5229_))))) (let ((?v_5 (bvand ?v_4 (bvnot ((_ extract 58 58) _substvar_5229_))))) (let ((?v_6 (bvand ?v_5 (bvnot ((_ extract 57 57) _substvar_5229_))))) (let ((?v_7 (bvand ?v_6 (bvnot ((_ extract 56 56) _substvar_5229_))))) (let ((?v_8 (bvand ?v_7 (bvnot ((_ extract 55 55) _substvar_5229_))))) (let ((?v_9 (bvand ?v_8 (bvnot ((_ extract 54 54) _substvar_5229_))))) (let ((?v_10 (bvand ?v_9 (bvnot ((_ extract 53 53) _substvar_5229_))))) (let ((?v_11 (bvand ?v_10 (bvnot ((_ extract 52 52) _substvar_5229_))))) (let ((?v_12 (bvand ?v_11 (bvnot ((_ extract 51 51) _substvar_5229_))))) (let ((?v_13 (bvand ?v_12 (bvnot ((_ extract 50 50) _substvar_5229_))))) (let ((?v_14 (bvand ?v_13 (bvnot ((_ extract 49 49) _substvar_5229_))))) (let ((?v_15 (bvand ?v_14 (bvnot ((_ extract 48 48) _substvar_5229_))))) (let ((?v_16 (bvand ?v_15 (bvnot ((_ extract 47 47) _substvar_5229_))))) (let ((?v_17 (bvand ?v_16 (bvnot ((_ extract 46 46) _substvar_5229_))))) (let ((?v_18 (bvand ?v_17 (bvnot ((_ extract 45 45) _substvar_5229_))))) (let ((?v_19 (bvand ?v_18 (bvnot ((_ extract 44 44) _substvar_5229_))))) (let ((?v_20 (bvand ?v_19 (bvnot ((_ extract 43 43) _substvar_5229_))))) (let ((?v_21 (bvand ?v_20 (bvnot ((_ extract 42 42) _substvar_5229_))))) (let ((?v_22 (bvand ?v_21 (bvnot ((_ extract 41 41) _substvar_5229_))))) (let ((?v_23 (bvand ?v_22 (bvnot ((_ extract 40 40) _substvar_5229_))))) (let ((?v_24 (bvand ?v_23 (bvnot ((_ extract 39 39) _substvar_5229_))))) (let ((?v_25 (bvand ?v_24 (bvnot ((_ extract 38 38) _substvar_5229_))))) (let ((?v_26 (bvand ?v_25 (bvnot ((_ extract 37 37) _substvar_5229_))))) (let ((?v_27 (bvand ?v_26 (bvnot ((_ extract 36 36) _substvar_5229_))))) (let ((?v_28 (bvand ?v_27 (bvnot ((_ extract 35 35) _substvar_5229_))))) (let ((?v_29 (bvand ?v_28 (bvnot ((_ extract 34 34) _substvar_5229_))))) (let ((?v_30 (bvand ?v_29 (bvnot ((_ extract 33 33) _substvar_5229_))))) (let ((?v_31 (bvand ?v_30 (bvnot ((_ extract 32 32) _substvar_5229_))))) (let ((?v_32 (bvand ?v_31 (bvnot ((_ extract 31 31) _substvar_5229_))))) (let ((?v_33 (bvand ?v_32 (bvnot ((_ extract 30 30) _substvar_5229_))))) (let ((?v_34 (bvand ?v_33 (bvnot ((_ extract 29 29) _substvar_5229_))))) (let ((?v_35 (bvand ?v_34 (bvnot ((_ extract 28 28) _substvar_5229_))))) (let ((?v_36 (bvand ?v_35 (bvnot ((_ extract 27 27) _substvar_5229_))))) (let ((?v_37 (bvand ?v_36 (bvnot ((_ extract 26 26) _substvar_5229_))))) (let ((?v_38 (bvand ?v_37 (bvnot ((_ extract 25 25) _substvar_5229_))))) (let ((?v_39 (bvand ?v_38 (bvnot ((_ extract 24 24) _substvar_5229_))))) (let ((?v_40 (bvand ?v_39 (bvnot ((_ extract 23 23) _substvar_5229_))))) (let ((?v_41 (bvand ?v_40 (bvnot ((_ extract 22 22) _substvar_5229_))))) (let ((?v_42 (bvand ?v_41 (bvnot ((_ extract 21 21) _substvar_5229_))))) (let ((?v_43 (bvand ?v_42 (bvnot ((_ extract 20 20) _substvar_5229_))))) (let ((?v_44 (bvand ?v_43 (bvnot ((_ extract 19 19) _substvar_5229_))))) (let ((?v_45 (bvand ?v_44 (bvnot ((_ extract 18 18) _substvar_5229_))))) (let ((?v_46 (bvand ?v_45 (bvnot ((_ extract 17 17) _substvar_5229_))))) (let ((?v_47 (bvand ?v_46 (bvnot ((_ extract 16 16) _substvar_5229_))))) (let ((?v_48 (bvand ?v_47 (bvnot ((_ extract 15 15) _substvar_5229_))))) (let ((?v_49 (bvand ?v_48 (bvnot ((_ extract 14 14) _substvar_5229_))))) (let ((?v_50 (bvand ?v_49 (bvnot ((_ extract 13 13) _substvar_5229_))))) (let ((?v_51 (bvand ?v_50 (bvnot ((_ extract 12 12) _substvar_5229_))))) (let ((?v_52 (bvand ?v_51 (bvnot ((_ extract 11 11) _substvar_5229_))))) (let ((?v_53 (bvand ?v_52 (bvnot ((_ extract 10 10) _substvar_5229_))))) (let ((?v_54 (bvand ?v_53 (bvnot ((_ extract 9 9) _substvar_5229_))))) (let ((?v_55 (bvand ?v_54 (bvnot ((_ extract 8 8) _substvar_5229_))))) (let ((?v_56 (bvand ?v_55 (bvnot ((_ extract 7 7) _substvar_5229_))))) (let ((?v_57 (bvand ?v_56 (bvnot ((_ extract 6 6) _substvar_5229_))))) (let ((?v_58 (bvand ?v_57 (bvnot ((_ extract 5 5) _substvar_5229_))))) (let ((?v_59 (bvand ?v_58 (bvnot ((_ extract 4 4) _substvar_5229_))))) (let ((?v_60 (bvand ?v_59 (bvnot ((_ extract 3 3) _substvar_5229_))))) (let ((?v_61 (bvand ?v_60 (bvnot ((_ extract 2 2) _substvar_5229_))))) (not (= (bvnot (ite (= (bvnot (ite (= ((_ extract 127 64) (bvmul (concat (_ bv0 64) _substvar_5231_) (concat (_ bv0 64) _substvar_5229_))) (_ bv0 64)) (_ bv1 1) (_ bv0 1))) (bvnot (bvand (bvand (bvand (bvand (bvand (bvand (bvand (bvand (bvand (bvand (bvand (bvand (bvand (bvand (bvand (bvand (bvand (bvand (bvand (bvand (bvand (bvand (bvand (bvand (bvand (bvand (bvand (bvand (bvand (bvand (bvand (bvand (bvand (bvand (bvand (bvand (bvand (bvand (bvand (bvand (bvand (bvand (bvand (bvand (bvand (bvand (bvand (bvand (bvand (bvand (bvand (bvand (bvand (bvand (bvand (bvand (bvand (bvand (bvand (bvand (bvand (bvand (bvand (bvnot (bvand ((_ extract 1 1) _substvar_5231_) ?v_0)) (bvnot (bvand ((_ extract 2 2) _substvar_5231_) (bvnot ?v_1)))) (bvnot (bvand ((_ extract 3 3) _substvar_5231_) (bvnot ?v_2)))) (bvnot (bvand ((_ extract 4 4) _substvar_5231_) (bvnot ?v_3)))) (bvnot (bvand ((_ extract 5 5) _substvar_5231_) (bvnot ?v_4)))) (bvnot (bvand ((_ extract 6 6) _substvar_5231_) (bvnot ?v_5)))) (bvnot (bvand ((_ extract 7 7) _substvar_5231_) (bvnot ?v_6)))) (bvnot (bvand ((_ extract 8 8) _substvar_5231_) (bvnot ?v_7)))) (bvnot (bvand ((_ extract 9 9) _substvar_5231_) (bvnot ?v_8)))) (bvnot (bvand ((_ extract 10 10) _substvar_5231_) (bvnot ?v_9)))) (bvnot (bvand ((_ extract 11 11) _substvar_5231_) (bvnot ?v_10)))) (bvnot (bvand ((_ extract 12 12) _substvar_5231_) (bvnot ?v_11)))) (bvnot (bvand ((_ extract 13 13) _substvar_5231_) (bvnot ?v_12)))) (bvnot (bvand ((_ extract 14 14) _substvar_5231_) (bvnot ?v_13)))) (bvnot (bvand ((_ extract 15 15) _substvar_5231_) (bvnot ?v_14)))) (bvnot (bvand ((_ extract 16 16) _substvar_5231_) (bvnot ?v_15)))) (bvnot (bvand ((_ extract 17 17) _substvar_5231_) (bvnot ?v_16)))) (bvnot (bvand ((_ extract 18 18) _substvar_5231_) (bvnot ?v_17)))) (bvnot (bvand ((_ extract 19 19) _substvar_5231_) (bvnot ?v_18)))) (bvnot (bvand ((_ extract 20 20) _substvar_5231_) (bvnot ?v_19)))) (bvnot (bvand ((_ extract 21 21) _substvar_5231_) (bvnot ?v_20)))) (bvnot (bvand ((_ extract 22 22) _substvar_5231_) (bvnot ?v_21)))) (bvnot (bvand ((_ extract 23 23) _substvar_5231_) (bvnot ?v_22)))) (bvnot (bvand ((_ extract 24 24) _substvar_5231_) (bvnot ?v_23)))) (bvnot (bvand ((_ extract 25 25) _substvar_5231_) (bvnot ?v_24)))) (bvnot (bvand ((_ extract 26 26) _substvar_5231_) (bvnot ?v_25)))) (bvnot (bvand ((_ extract 27 27) _substvar_5231_) (bvnot ?v_26)))) (bvnot (bvand ((_ extract 28 28) _substvar_5231_) (bvnot ?v_27)))) (bvnot (bvand ((_ extract 29 29) _substvar_5231_) (bvnot ?v_28)))) (bvnot (bvand ((_ extract 30 30) _substvar_5231_) (bvnot ?v_29)))) (bvnot (bvand ((_ extract 31 31) _substvar_5231_) (bvnot ?v_30)))) (bvnot (bvand ((_ extract 32 32) _substvar_5231_) (bvnot ?v_31)))) (bvnot (bvand ((_ extract 33 33) _substvar_5231_) (bvnot ?v_32)))) (bvnot (bvand ((_ extract 34 34) _substvar_5231_) (bvnot ?v_33)))) (bvnot (bvand ((_ extract 35 35) _substvar_5231_) (bvnot ?v_34)))) (bvnot (bvand ((_ extract 36 36) _substvar_5231_) (bvnot ?v_35)))) (bvnot (bvand ((_ extract 37 37) _substvar_5231_) (bvnot ?v_36)))) (bvnot (bvand ((_ extract 38 38) _substvar_5231_) (bvnot ?v_37)))) (bvnot (bvand ((_ extract 39 39) _substvar_5231_) (bvnot ?v_38)))) (bvnot (bvand ((_ extract 40 40) _substvar_5231_) (bvnot ?v_39)))) (bvnot (bvand ((_ extract 41 41) _substvar_5231_) (bvnot ?v_40)))) (bvnot (bvand ((_ extract 42 42) _substvar_5231_) (bvnot ?v_41)))) (bvnot (bvand ((_ extract 43 43) _substvar_5231_) (bvnot ?v_42)))) (bvnot (bvand ((_ extract 44 44) _substvar_5231_) (bvnot ?v_43)))) (bvnot (bvand ((_ extract 45 45) _substvar_5231_) (bvnot ?v_44)))) (bvnot (bvand ((_ extract 46 46) _substvar_5231_) (bvnot ?v_45)))) (bvnot (bvand ((_ extract 47 47) _substvar_5231_) (bvnot ?v_46)))) (bvnot (bvand ((_ extract 48 48) _substvar_5231_) (bvnot ?v_47)))) (bvnot (bvand ((_ extract 49 49) _substvar_5231_) (bvnot ?v_48)))) (bvnot (bvand ((_ extract 50 50) _substvar_5231_) (bvnot ?v_49)))) (bvnot (bvand ((_ extract 51 51) _substvar_5231_) (bvnot ?v_50)))) (bvnot (bvand ((_ extract 52 52) _substvar_5231_) (bvnot ?v_51)))) (bvnot (bvand ((_ extract 53 53) _substvar_5231_) (bvnot ?v_52)))) (bvnot (bvand ((_ extract 54 54) _substvar_5231_) (bvnot ?v_53)))) (bvnot (bvand ((_ extract 55 55) _substvar_5231_) (bvnot ?v_54)))) (bvnot (bvand ((_ extract 56 56) _substvar_5231_) (bvnot ?v_55)))) (bvnot (bvand ((_ extract 57 57) _substvar_5231_) (bvnot ?v_56)))) (bvnot (bvand ((_ extract 58 58) _substvar_5231_) (bvnot ?v_57)))) (bvnot (bvand ((_ extract 59 59) _substvar_5231_) (bvnot ?v_58)))) (bvnot (bvand ((_ extract 60 60) _substvar_5231_) (bvnot ?v_59)))) (bvnot (bvand ((_ extract 61 61) _substvar_5231_) (bvnot ?v_60)))) (bvnot (bvand ((_ extract 62 62) _substvar_5231_) (bvnot ?v_61)))) (bvnot (bvand ((_ extract 63 63) _substvar_5231_) (bvnot (bvand ?v_61 (bvnot ((_ extract 1 1) _substvar_5229_))))))) (bvnot ((_ extract 64 64) (bvmul (concat (_ bv0 1) _substvar_5231_) (concat (_ bv0 1) _substvar_5229_))))))) (_ bv1 1) (_ bv0 1))) (_ bv0 1))))))))))))))))))))))))))))))))))))))))))))))))))))))))))))))))))
(check-sat)
(exit)
